problem_generation/data/GISP/train/er_n=64_m=1218_p=0.60_SET2_setparam=100.00_alpha=0.50_928.lp
maximize
OBJ:100x0 + 100x1 + 100x2 + 100x3 + 100x4 + 100x5 + 100x6 + 100x7 + 100x8 + 100x9 + 100x10 + 100x11 + 100x12 + 100x13 + 100x14 + 100x15 + 100x16 + 100x17 + 100x18 + 100x19 + 100x20 + 100x21 + 100x22 + 100x23 + 100x24 + 100x25 + 100x26 + 100x27 + 100x28 + 100x29 + 100x30 + 100x31 + 100x32 + 100x33 + 100x34 + 100x35 + 100x36 + 100x37 + 100x38 + 100x39 + 100x40 + 100x41 + 100x42 + 100x43 + 100x44 + 100x45 + 100x46 + 100x47 + 100x48 + 100x49 + 100x50 + 100x51 + 100x52 + 100x53 + 100x54 + 100x55 + 100x56 + 100x57 + 100x58 + 100x59 + 100x60 + 100x61 + 100x62 + 100x63 - y47_53 - y26_30 - y18_35 - y18_44 - y8_9 - y48_54 - y21_37 - y11_14 - y29_50 - y0_23 - y40_59 - y10_27 - y3_6 - y44_56 - y14_15 - y2_59 - y22_37 - y3_33 - y22_46 - y14_42 - y15_16 - y18_21 - y17_53 - y28_53 - y7_30 - y9_49 - y5_60 - y17_62 - y28_62 - y48_49 - y6_52 - y21_50 - y29_63 - y21_59 - y25_29 - y33_42 - y25_38 - y2_45 - y10_58 - y22_23 - y14_19 - y43_55 - y22_32 - y13_51 - y14_28 - y16_56 - y28_39 - y47_52 - y5_46 - y36_61 - y5_55 - y9_53 - y29_31 - y21_27 - y29_40 - y21_36 - y2_13 - y10_44 - y32_41 - y51_54 - y2_49 - y32_50 - y32_59 - y43_59 - y13_55 - y16_51 - y16_60 - y17_25 - y9_30 - y5_50 - y17_52 - y28_52 - y28_61 - y50_58 - y6_33 - y21_31 - y6_42 - y40_44 - y42_63 - y6_51 - y21_49 - y10_12 - y39_48 - y10_21 - y31_62 - y10_39 - y12_58 - y23_58 - y13_32 - y24_32 - y24_41 - y35_41 - y16_37 - y13_50 - y1_57 - y13_59 - y24_59 - y35_59 - y5_27 - y5_45 - y28_47 - y9_43 - y28_56 - y9_52 - y50_53 - y5_63 - y21_26 - y27_60 - y50_62 - y42_58 - y61_62 - y2_3 - y20_39 - y31_48 - y2_21 - y54_59 - y2_30 - y4_49 - y24_27 - y35_36 - y32_49 - y43_58 - y16_41 - y1_52 - y35_54 - y13_63 - y35_63 - y5_22 - y46_60 - y36_37 - y5_40 - y28_42 - y5_58 - y6_23 - y42_44 - y58_61 - y50_57 - y8_51 - y8_60 - y20_34 - y31_43 - y2_16 - y12_48 - y23_48 - y31_61 - y54_63 - y16_18 - y1_29 - y24_31 - y43_44 - y1_38 - y43_53 - y16_45 - y5_17 - y38_60 - y27_41 - y50_52 - y42_48 - y42_57 - y2_11 - y12_52 - y23_52 - y53_62 - y4_57 - y16_22 - y13_35 - y1_42 - y16_49 - y46_50 - y9_10 - y38_46 - y46_59 - y57_59 - y38_55 - y49_55 - y9_28 - y15_62 - y5_39 - y7_58 - y27_36 - y6_13 - y27_54 - y11_37 - y27_63 - y30_59 - y12_20 - y39_46 - y12_38 - y31_51 - y1_19 - y34_53 - y13_30 - y16_26 - y34_62 - y1_37 - y1_46 - y5_7 - y26_48 - y57_63 - y26_57 - y18_53 - y8_27 - y19_27 - y27_40 - y8_36 - y42_47 - y8_54 - y30_54 - y42_56 - y12_15 - y11_59 - y52_60 - y23_42 - y34_39 - y1_14 - y4_47 - y34_48 - y1_23 - y24_25 - y3_51 - y37_53 - y16_30 - y37_62 - y15_34 - y57_58 - y18_39 - y15_52 - y18_48 - y15_61 - y26_61 - y38_63 - y8_49 - y30_58 - y11_54 - y41_55 - y20_32 - y12_28 - y23_37 - y25_56 - y37_39 - y22_50 - y34_61 - y5_6 - y7_25 - y38_40 - y38_49 - y7_43 - y18_52 - y11_13 - y8_26 - y19_26 - y27_39 - y8_35 - y30_35 - y0_31 - y30_44 - y11_40 - y12_14 - y60_63 - y33_46 - y41_59 - y33_55 - y44_55 - y1_4 - y25_60 - y22_36 - y1_13 - y34_47 - y45_56 - y3_50 - y22_63 - y15_33 - y15_42 - y26_42 - y26_51 - y7_47 - y0_8 - y7_56 - y19_21 - y0_35 - y11_35 - y41_45 - y41_54 - y52_54 - y4_14 - y10_48 - y52_63 - y10_57 - y22_31 - y2_62 - y34_42 - y3_36 - y3_45 - y37_47 - y3_54 - y14_54 - y15_19 - y7_15 - y26_28 - y18_24 - y47_60 - y59_62 - y7_33 - y7_42 - y48_52 - y0_12 - y19_25 - y21_44 - y11_21 - y40_57 - y11_30 - y10_34 - y33_36 - y25_32 - y4_9 - y2_39 - y22_26 - y34_37 - y14_31 - y22_44 - y14_40 - y22_53 - y7_10 - y15_23 - y55_59 - y36_55 - y15_32 - y26_32 - y28_51 - y17_60 - y29_34 - y48_56 - y29_52 - y21_48 - y40_61 - y33_40 - y2_43 - y3_8 - y2_52 - y2_61 - y22_39 - y14_35 - y14_44 - y16_63 - y7_14 - y17_46 - y17_55 - y9_51 - y21_25 - y0_2 - y29_38 - y48_51 - y21_34 - y29_56 - y21_52 - y6_63 - y33_35 - y25_31 - y10_42 - y33_44 - y25_40 - y43_48 - y3_30 - y1_60 - y16_58 - y17_41 - y17_50 - y47_63 - y28_59 - y9_55 - y6_31 - y21_29 - y6_40 - y6_49 - y20_60 - y25_26 - y2_33 - y25_35 - y32_34 - y14_16 - y32_52 - y13_48 - y35_48 - y13_57 - y16_53 - y17_27 - y28_36 - y47_49 - y5_43 - y50_60 - y6_35 - y29_37 - y21_33 - y6_44 - y10_23 - y23_51 - y32_47 - y51_60 - y1_41 - y16_39 - y16_48 - y13_61 - y24_61 - y5_20 - y17_22 - y9_18 - y5_29 - y36_44 - y9_45 - y9_54 - y6_30 - y42_51 - y21_28 - y0_63 - y2_5 - y20_41 - y31_41 - y23_46 - y20_59 - y4_42 - y31_59 - y16_34 - y1_45 - y13_47 - y24_47 - y16_43 - y35_47 - y1_54 - y13_56 - y5_15 - y1_63 - y46_53 - y9_13 - y16_61 - y5_24 - y28_35 - y6_7 - y9_40 - y42_46 - y8_53 - y0_49 - y19_62 - y20_27 - y0_58 - y12_32 - y20_45 - y31_54 - y4_37 - y54_56 - y4_55 - y1_31 - y24_33 - y43_46 - y13_42 - y35_42 - y1_49 - y24_51 - y16_47 - y46_48 - y1_58 - y38_44 - y5_19 - y15_60 - y38_62 - y5_37 - y9_35 - y6_20 - y19_39 - y61_63 - y20_22 - y0_53 - y12_18 - y20_31 - y23_27 - y20_40 - y4_23 - y4_41 - y12_54 - y1_17 - y1_26 - y34_60 - y56_60 - y16_33 - y38_39 - y9_12 - y46_61 - y7_51 - y18_51 - y27_38 - y8_34 - y8_43 - y30_43 - y27_56 - y0_39 - y11_48 - y20_26 - y31_35 - y20_44 - y31_44 - y23_40 - y1_3 - y23_49 - y4_45 - y45_46 - y1_21 - y16_19 - y34_55 - y22_62 - y1_39 - y3_58 - y38_43 - y15_50 - y26_50 - y49_52 - y15_59 - y38_61 - y7_55 - y27_33 - y11_34 - y42_49 - y0_43 - y11_43 - y20_21 - y11_61 - y23_26 - y52_62 - y4_22 - y25_63 - y53_63 - y22_57 - y56_59 - y46_51 - y15_45 - y26_45 - y7_41 - y49_56 - y8_15 - y19_24 - y48_60 - y11_20 - y30_33 - y27_46 - y0_38 - y11_47 - y41_48 - y12_30 - y23_30 - y33_62 - y44_62 - y22_34 - y22_43 - y53_58 - y45_54 - y37_50 - y56_63 - y3_57 - y14_57 - y37_59 - y7_18 - y26_31 - y37_49 - y7_36 - y15_49 - y15_58 - y26_58 - y0_6 - y7_54 - y8_19 - y27_32 - y8_37 - y19_37 - y0_33 - y11_42 - y12_16 - y41_52 - y33_48 - y4_21 - y22_29 - y2_60 - y34_40 - y45_49 - y56_58 - y3_52 - y7_13 - y15_26 - y15_35 - y26_35 - y7_31 - y15_44 - y17_63 - y18_40 - y7_40 - y0_1 - y18_49 - y8_23 - y0_19 - y11_19 - y29_55 - y41_47 - y4_7 - y41_56 - y52_56 - y4_16 - y44_52 - y3_20 - y22_33 - y34_35 - y3_29 - y22_42 - y14_47 - y3_56
 Subject to
C1: x0+x1-y0_1 <=1 
C2: x0+x2-y0_2 <=1 
C3: x0+x6-y0_6 <=1 
C4: x0+x7 <=1 
C5: x0+x8-y0_8 <=1 
C6: x0+x9 <=1 
C7: x0+x10 <=1 
C8: x0+x12-y0_12 <=1 
C9: x0+x13 <=1 
C10: x0+x15 <=1 
C11: x0+x19-y0_19 <=1 
C12: x0+x21 <=1 
C13: x0+x22 <=1 
C14: x0+x23-y0_23 <=1 
C15: x0+x31-y0_31 <=1 
C16: x0+x33-y0_33 <=1 
C17: x0+x35-y0_35 <=1 
C18: x0+x38-y0_38 <=1 
C19: x0+x39-y0_39 <=1 
C20: x0+x42 <=1 
C21: x0+x43-y0_43 <=1 
C22: x0+x45 <=1 
C23: x0+x46 <=1 
C24: x0+x47 <=1 
C25: x0+x49-y0_49 <=1 
C26: x0+x50 <=1 
C27: x0+x52 <=1 
C28: x0+x53-y0_53 <=1 
C29: x0+x56 <=1 
C30: x0+x57 <=1 
C31: x0+x58-y0_58 <=1 
C32: x0+x60 <=1 
C33: x0+x63-y0_63 <=1 
C34: x1+x3-y1_3 <=1 
C35: x1+x4-y1_4 <=1 
C36: x1+x8 <=1 
C37: x1+x9 <=1 
C38: x1+x11 <=1 
C39: x1+x12 <=1 
C40: x1+x13-y1_13 <=1 
C41: x1+x14-y1_14 <=1 
C42: x1+x15 <=1 
C43: x1+x17-y1_17 <=1 
C44: x1+x19-y1_19 <=1 
C45: x1+x21-y1_21 <=1 
C46: x1+x23-y1_23 <=1 
C47: x1+x26-y1_26 <=1 
C48: x1+x29-y1_29 <=1 
C49: x1+x30 <=1 
C50: x1+x31-y1_31 <=1 
C51: x1+x34 <=1 
C52: x1+x35 <=1 
C53: x1+x37-y1_37 <=1 
C54: x1+x38-y1_38 <=1 
C55: x1+x39-y1_39 <=1 
C56: x1+x40 <=1 
C57: x1+x41-y1_41 <=1 
C58: x1+x42-y1_42 <=1 
C59: x1+x45-y1_45 <=1 
C60: x1+x46-y1_46 <=1 
C61: x1+x49-y1_49 <=1 
C62: x1+x52-y1_52 <=1 
C63: x1+x54-y1_54 <=1 
C64: x1+x57-y1_57 <=1 
C65: x1+x58-y1_58 <=1 
C66: x1+x60-y1_60 <=1 
C67: x1+x61 <=1 
C68: x1+x63-y1_63 <=1 
C69: x2+x3-y2_3 <=1 
C70: x2+x5-y2_5 <=1 
C71: x2+x8 <=1 
C72: x2+x11-y2_11 <=1 
C73: x2+x12 <=1 
C74: x2+x13-y2_13 <=1 
C75: x2+x16-y2_16 <=1 
C76: x2+x17 <=1 
C77: x2+x18 <=1 
C78: x2+x21-y2_21 <=1 
C79: x2+x22 <=1 
C80: x2+x23 <=1 
C81: x2+x25 <=1 
C82: x2+x30-y2_30 <=1 
C83: x2+x32 <=1 
C84: x2+x33-y2_33 <=1 
C85: x2+x39-y2_39 <=1 
C86: x2+x40 <=1 
C87: x2+x43-y2_43 <=1 
C88: x2+x45-y2_45 <=1 
C89: x2+x47 <=1 
C90: x2+x48 <=1 
C91: x2+x49-y2_49 <=1 
C92: x2+x50 <=1 
C93: x2+x51 <=1 
C94: x2+x52-y2_52 <=1 
C95: x2+x53 <=1 
C96: x2+x54 <=1 
C97: x2+x55 <=1 
C98: x2+x56 <=1 
C99: x2+x57 <=1 
C100: x2+x59-y2_59 <=1 
C101: x2+x60-y2_60 <=1 
C102: x2+x61-y2_61 <=1 
C103: x2+x62-y2_62 <=1 
C104: x2+x63 <=1 
C105: x3+x6-y3_6 <=1 
C106: x3+x7 <=1 
C107: x3+x8-y3_8 <=1 
C108: x3+x12 <=1 
C109: x3+x15 <=1 
C110: x3+x20-y3_20 <=1 
C111: x3+x25 <=1 
C112: x3+x29-y3_29 <=1 
C113: x3+x30-y3_30 <=1 
C114: x3+x31 <=1 
C115: x3+x32 <=1 
C116: x3+x33-y3_33 <=1 
C117: x3+x34 <=1 
C118: x3+x36-y3_36 <=1 
C119: x3+x37 <=1 
C120: x3+x39 <=1 
C121: x3+x44 <=1 
C122: x3+x45-y3_45 <=1 
C123: x3+x50-y3_50 <=1 
C124: x3+x51-y3_51 <=1 
C125: x3+x52-y3_52 <=1 
C126: x3+x53 <=1 
C127: x3+x54-y3_54 <=1 
C128: x3+x56-y3_56 <=1 
C129: x3+x57-y3_57 <=1 
C130: x3+x58-y3_58 <=1 
C131: x3+x59 <=1 
C132: x3+x61 <=1 
C133: x4+x6 <=1 
C134: x4+x7-y4_7 <=1 
C135: x4+x9-y4_9 <=1 
C136: x4+x10 <=1 
C137: x4+x12 <=1 
C138: x4+x14-y4_14 <=1 
C139: x4+x15 <=1 
C140: x4+x16-y4_16 <=1 
C141: x4+x17 <=1 
C142: x4+x18 <=1 
C143: x4+x19 <=1 
C144: x4+x21-y4_21 <=1 
C145: x4+x22-y4_22 <=1 
C146: x4+x23-y4_23 <=1 
C147: x4+x25 <=1 
C148: x4+x26 <=1 
C149: x4+x27 <=1 
C150: x4+x29 <=1 
C151: x4+x32 <=1 
C152: x4+x34 <=1 
C153: x4+x37-y4_37 <=1 
C154: x4+x39 <=1 
C155: x4+x41-y4_41 <=1 
C156: x4+x42-y4_42 <=1 
C157: x4+x45-y4_45 <=1 
C158: x4+x46 <=1 
C159: x4+x47-y4_47 <=1 
C160: x4+x48 <=1 
C161: x4+x49-y4_49 <=1 
C162: x4+x52 <=1 
C163: x4+x55-y4_55 <=1 
C164: x4+x56 <=1 
C165: x4+x57-y4_57 <=1 
C166: x4+x59 <=1 
C167: x5+x6-y5_6 <=1 
C168: x5+x7-y5_7 <=1 
C169: x5+x10 <=1 
C170: x5+x12 <=1 
C171: x5+x13 <=1 
C172: x5+x15-y5_15 <=1 
C173: x5+x16 <=1 
C174: x5+x17-y5_17 <=1 
C175: x5+x19-y5_19 <=1 
C176: x5+x20-y5_20 <=1 
C177: x5+x22-y5_22 <=1 
C178: x5+x24-y5_24 <=1 
C179: x5+x25 <=1 
C180: x5+x26 <=1 
C181: x5+x27-y5_27 <=1 
C182: x5+x28 <=1 
C183: x5+x29-y5_29 <=1 
C184: x5+x35 <=1 
C185: x5+x36 <=1 
C186: x5+x37-y5_37 <=1 
C187: x5+x39-y5_39 <=1 
C188: x5+x40-y5_40 <=1 
C189: x5+x41 <=1 
C190: x5+x42 <=1 
C191: x5+x43-y5_43 <=1 
C192: x5+x45-y5_45 <=1 
C193: x5+x46-y5_46 <=1 
C194: x5+x47 <=1 
C195: x5+x50-y5_50 <=1 
C196: x5+x51 <=1 
C197: x5+x55-y5_55 <=1 
C198: x5+x57 <=1 
C199: x5+x58-y5_58 <=1 
C200: x5+x59 <=1 
C201: x5+x60-y5_60 <=1 
C202: x5+x62 <=1 
C203: x5+x63-y5_63 <=1 
C204: x6+x7-y6_7 <=1 
C205: x6+x8 <=1 
C206: x6+x10 <=1 
C207: x6+x11 <=1 
C208: x6+x12 <=1 
C209: x6+x13-y6_13 <=1 
C210: x6+x14 <=1 
C211: x6+x17 <=1 
C212: x6+x18 <=1 
C213: x6+x19 <=1 
C214: x6+x20-y6_20 <=1 
C215: x6+x21 <=1 
C216: x6+x23-y6_23 <=1 
C217: x6+x26 <=1 
C218: x6+x30-y6_30 <=1 
C219: x6+x31-y6_31 <=1 
C220: x6+x33-y6_33 <=1 
C221: x6+x35-y6_35 <=1 
C222: x6+x40-y6_40 <=1 
C223: x6+x42-y6_42 <=1 
C224: x6+x43 <=1 
C225: x6+x44-y6_44 <=1 
C226: x6+x47 <=1 
C227: x6+x48 <=1 
C228: x6+x49-y6_49 <=1 
C229: x6+x50 <=1 
C230: x6+x51-y6_51 <=1 
C231: x6+x52-y6_52 <=1 
C232: x6+x53 <=1 
C233: x6+x55 <=1 
C234: x6+x58 <=1 
C235: x6+x59 <=1 
C236: x6+x62 <=1 
C237: x6+x63-y6_63 <=1 
C238: x7+x9 <=1 
C239: x7+x10-y7_10 <=1 
C240: x7+x11 <=1 
C241: x7+x12 <=1 
C242: x7+x13-y7_13 <=1 
C243: x7+x14-y7_14 <=1 
C244: x7+x15-y7_15 <=1 
C245: x7+x16 <=1 
C246: x7+x18-y7_18 <=1 
C247: x7+x19 <=1 
C248: x7+x21 <=1 
C249: x7+x23 <=1 
C250: x7+x25-y7_25 <=1 
C251: x7+x30-y7_30 <=1 
C252: x7+x31-y7_31 <=1 
C253: x7+x33-y7_33 <=1 
C254: x7+x34 <=1 
C255: x7+x35 <=1 
C256: x7+x36-y7_36 <=1 
C257: x7+x39 <=1 
C258: x7+x40-y7_40 <=1 
C259: x7+x41-y7_41 <=1 
C260: x7+x42-y7_42 <=1 
C261: x7+x43-y7_43 <=1 
C262: x7+x46 <=1 
C263: x7+x47-y7_47 <=1 
C264: x7+x48 <=1 
C265: x7+x51-y7_51 <=1 
C266: x7+x54-y7_54 <=1 
C267: x7+x55-y7_55 <=1 
C268: x7+x56-y7_56 <=1 
C269: x7+x57 <=1 
C270: x7+x58-y7_58 <=1 
C271: x7+x61 <=1 
C272: x8+x9-y8_9 <=1 
C273: x8+x11 <=1 
C274: x8+x13 <=1 
C275: x8+x15-y8_15 <=1 
C276: x8+x18 <=1 
C277: x8+x19-y8_19 <=1 
C278: x8+x23-y8_23 <=1 
C279: x8+x26-y8_26 <=1 
C280: x8+x27-y8_27 <=1 
C281: x8+x28 <=1 
C282: x8+x29 <=1 
C283: x8+x31 <=1 
C284: x8+x32 <=1 
C285: x8+x33 <=1 
C286: x8+x34-y8_34 <=1 
C287: x8+x35-y8_35 <=1 
C288: x8+x36-y8_36 <=1 
C289: x8+x37-y8_37 <=1 
C290: x8+x38 <=1 
C291: x8+x40 <=1 
C292: x8+x42 <=1 
C293: x8+x43-y8_43 <=1 
C294: x8+x46 <=1 
C295: x8+x47 <=1 
C296: x8+x48 <=1 
C297: x8+x49-y8_49 <=1 
C298: x8+x50 <=1 
C299: x8+x51-y8_51 <=1 
C300: x8+x52 <=1 
C301: x8+x53-y8_53 <=1 
C302: x8+x54-y8_54 <=1 
C303: x8+x55 <=1 
C304: x8+x56 <=1 
C305: x8+x57 <=1 
C306: x8+x58 <=1 
C307: x8+x60-y8_60 <=1 
C308: x8+x61 <=1 
C309: x9+x10-y9_10 <=1 
C310: x9+x11 <=1 
C311: x9+x12-y9_12 <=1 
C312: x9+x13-y9_13 <=1 
C313: x9+x15 <=1 
C314: x9+x17 <=1 
C315: x9+x18-y9_18 <=1 
C316: x9+x19 <=1 
C317: x9+x21 <=1 
C318: x9+x22 <=1 
C319: x9+x25 <=1 
C320: x9+x27 <=1 
C321: x9+x28-y9_28 <=1 
C322: x9+x29 <=1 
C323: x9+x30-y9_30 <=1 
C324: x9+x35-y9_35 <=1 
C325: x9+x36 <=1 
C326: x9+x37 <=1 
C327: x9+x39 <=1 
C328: x9+x40-y9_40 <=1 
C329: x9+x43-y9_43 <=1 
C330: x9+x44 <=1 
C331: x9+x45-y9_45 <=1 
C332: x9+x47 <=1 
C333: x9+x48 <=1 
C334: x9+x49-y9_49 <=1 
C335: x9+x50 <=1 
C336: x9+x51-y9_51 <=1 
C337: x9+x52-y9_52 <=1 
C338: x9+x53-y9_53 <=1 
C339: x9+x54-y9_54 <=1 
C340: x9+x55-y9_55 <=1 
C341: x9+x56 <=1 
C342: x9+x58 <=1 
C343: x9+x62 <=1 
C344: x10+x11 <=1 
C345: x10+x12-y10_12 <=1 
C346: x10+x13 <=1 
C347: x10+x14 <=1 
C348: x10+x19 <=1 
C349: x10+x21-y10_21 <=1 
C350: x10+x22 <=1 
C351: x10+x23-y10_23 <=1 
C352: x10+x24 <=1 
C353: x10+x26 <=1 
C354: x10+x27-y10_27 <=1 
C355: x10+x30 <=1 
C356: x10+x32 <=1 
C357: x10+x34-y10_34 <=1 
C358: x10+x37 <=1 
C359: x10+x38 <=1 
C360: x10+x39-y10_39 <=1 
C361: x10+x42-y10_42 <=1 
C362: x10+x44-y10_44 <=1 
C363: x10+x46 <=1 
C364: x10+x48-y10_48 <=1 
C365: x10+x53 <=1 
C366: x10+x54 <=1 
C367: x10+x57-y10_57 <=1 
C368: x10+x58-y10_58 <=1 
C369: x10+x59 <=1 
C370: x10+x60 <=1 
C371: x10+x61 <=1 
C372: x11+x12 <=1 
C373: x11+x13-y11_13 <=1 
C374: x11+x14-y11_14 <=1 
C375: x11+x15 <=1 
C376: x11+x16 <=1 
C377: x11+x17 <=1 
C378: x11+x19-y11_19 <=1 
C379: x11+x20-y11_20 <=1 
C380: x11+x21-y11_21 <=1 
C381: x11+x26 <=1 
C382: x11+x28 <=1 
C383: x11+x29 <=1 
C384: x11+x30-y11_30 <=1 
C385: x11+x32 <=1 
C386: x11+x34-y11_34 <=1 
C387: x11+x35-y11_35 <=1 
C388: x11+x36 <=1 
C389: x11+x37-y11_37 <=1 
C390: x11+x39 <=1 
C391: x11+x40-y11_40 <=1 
C392: x11+x41 <=1 
C393: x11+x42-y11_42 <=1 
C394: x11+x43-y11_43 <=1 
C395: x11+x44 <=1 
C396: x11+x45 <=1 
C397: x11+x46 <=1 
C398: x11+x47-y11_47 <=1 
C399: x11+x48-y11_48 <=1 
C400: x11+x49 <=1 
C401: x11+x50 <=1 
C402: x11+x51 <=1 
C403: x11+x52 <=1 
C404: x11+x54-y11_54 <=1 
C405: x11+x57 <=1 
C406: x11+x59-y11_59 <=1 
C407: x11+x60 <=1 
C408: x11+x61-y11_61 <=1 
C409: x11+x63 <=1 
C410: x12+x14-y12_14 <=1 
C411: x12+x15-y12_15 <=1 
C412: x12+x16-y12_16 <=1 
C413: x12+x18-y12_18 <=1 
C414: x12+x20-y12_20 <=1 
C415: x12+x21 <=1 
C416: x12+x22 <=1 
C417: x12+x24 <=1 
C418: x12+x26 <=1 
C419: x12+x27 <=1 
C420: x12+x28-y12_28 <=1 
C421: x12+x30-y12_30 <=1 
C422: x12+x32-y12_32 <=1 
C423: x12+x33 <=1 
C424: x12+x35 <=1 
C425: x12+x38-y12_38 <=1 
C426: x12+x40 <=1 
C427: x12+x43 <=1 
C428: x12+x45 <=1 
C429: x12+x48-y12_48 <=1 
C430: x12+x50 <=1 
C431: x12+x52-y12_52 <=1 
C432: x12+x53 <=1 
C433: x12+x54-y12_54 <=1 
C434: x12+x56 <=1 
C435: x12+x58-y12_58 <=1 
C436: x12+x59 <=1 
C437: x12+x61 <=1 
C438: x12+x62 <=1 
C439: x12+x63 <=1 
C440: x13+x16 <=1 
C441: x13+x17 <=1 
C442: x13+x19 <=1 
C443: x13+x20 <=1 
C444: x13+x21 <=1 
C445: x13+x23 <=1 
C446: x13+x25 <=1 
C447: x13+x26 <=1 
C448: x13+x29 <=1 
C449: x13+x30-y13_30 <=1 
C450: x13+x32-y13_32 <=1 
C451: x13+x33 <=1 
C452: x13+x35-y13_35 <=1 
C453: x13+x38 <=1 
C454: x13+x39 <=1 
C455: x13+x42-y13_42 <=1 
C456: x13+x43 <=1 
C457: x13+x45 <=1 
C458: x13+x47-y13_47 <=1 
C459: x13+x48-y13_48 <=1 
C460: x13+x50-y13_50 <=1 
C461: x13+x51-y13_51 <=1 
C462: x13+x52 <=1 
C463: x13+x54 <=1 
C464: x13+x55-y13_55 <=1 
C465: x13+x56-y13_56 <=1 
C466: x13+x57-y13_57 <=1 
C467: x13+x59-y13_59 <=1 
C468: x13+x61-y13_61 <=1 
C469: x13+x62 <=1 
C470: x13+x63-y13_63 <=1 
C471: x14+x15-y14_15 <=1 
C472: x14+x16-y14_16 <=1 
C473: x14+x19-y14_19 <=1 
C474: x14+x21 <=1 
C475: x14+x23 <=1 
C476: x14+x24 <=1 
C477: x14+x28-y14_28 <=1 
C478: x14+x31-y14_31 <=1 
C479: x14+x32 <=1 
C480: x14+x35-y14_35 <=1 
C481: x14+x37 <=1 
C482: x14+x38 <=1 
C483: x14+x39 <=1 
C484: x14+x40-y14_40 <=1 
C485: x14+x42-y14_42 <=1 
C486: x14+x43 <=1 
C487: x14+x44-y14_44 <=1 
C488: x14+x46 <=1 
C489: x14+x47-y14_47 <=1 
C490: x14+x54-y14_54 <=1 
C491: x14+x55 <=1 
C492: x14+x56 <=1 
C493: x14+x57-y14_57 <=1 
C494: x14+x60 <=1 
C495: x14+x63 <=1 
C496: x15+x16-y15_16 <=1 
C497: x15+x17 <=1 
C498: x15+x18 <=1 
C499: x15+x19-y15_19 <=1 
C500: x15+x20 <=1 
C501: x15+x21 <=1 
C502: x15+x23-y15_23 <=1 
C503: x15+x24 <=1 
C504: x15+x25 <=1 
C505: x15+x26-y15_26 <=1 
C506: x15+x28 <=1 
C507: x15+x30 <=1 
C508: x15+x31 <=1 
C509: x15+x32-y15_32 <=1 
C510: x15+x33-y15_33 <=1 
C511: x15+x34-y15_34 <=1 
C512: x15+x35-y15_35 <=1 
C513: x15+x38 <=1 
C514: x15+x40 <=1 
C515: x15+x42-y15_42 <=1 
C516: x15+x44-y15_44 <=1 
C517: x15+x45-y15_45 <=1 
C518: x15+x48 <=1 
C519: x15+x49-y15_49 <=1 
C520: x15+x50-y15_50 <=1 
C521: x15+x52-y15_52 <=1 
C522: x15+x57 <=1 
C523: x15+x58-y15_58 <=1 
C524: x15+x59-y15_59 <=1 
C525: x15+x60-y15_60 <=1 
C526: x15+x61-y15_61 <=1 
C527: x15+x62-y15_62 <=1 
C528: x16+x17 <=1 
C529: x16+x18-y16_18 <=1 
C530: x16+x19-y16_19 <=1 
C531: x16+x22-y16_22 <=1 
C532: x16+x24 <=1 
C533: x16+x26-y16_26 <=1 
C534: x16+x27 <=1 
C535: x16+x28 <=1 
C536: x16+x30-y16_30 <=1 
C537: x16+x32 <=1 
C538: x16+x33-y16_33 <=1 
C539: x16+x34-y16_34 <=1 
C540: x16+x37-y16_37 <=1 
C541: x16+x38 <=1 
C542: x16+x39-y16_39 <=1 
C543: x16+x40 <=1 
C544: x16+x41-y16_41 <=1 
C545: x16+x43-y16_43 <=1 
C546: x16+x44 <=1 
C547: x16+x45-y16_45 <=1 
C548: x16+x47-y16_47 <=1 
C549: x16+x48-y16_48 <=1 
C550: x16+x49-y16_49 <=1 
C551: x16+x50 <=1 
C552: x16+x51-y16_51 <=1 
C553: x16+x52 <=1 
C554: x16+x53-y16_53 <=1 
C555: x16+x55 <=1 
C556: x16+x56-y16_56 <=1 
C557: x16+x58-y16_58 <=1 
C558: x16+x60-y16_60 <=1 
C559: x16+x61-y16_61 <=1 
C560: x16+x62 <=1 
C561: x16+x63-y16_63 <=1 
C562: x17+x18 <=1 
C563: x17+x19 <=1 
C564: x17+x22-y17_22 <=1 
C565: x17+x23 <=1 
C566: x17+x24 <=1 
C567: x17+x25-y17_25 <=1 
C568: x17+x26 <=1 
C569: x17+x27-y17_27 <=1 
C570: x17+x28 <=1 
C571: x17+x29 <=1 
C572: x17+x31 <=1 
C573: x17+x32 <=1 
C574: x17+x33 <=1 
C575: x17+x34 <=1 
C576: x17+x35 <=1 
C577: x17+x40 <=1 
C578: x17+x41-y17_41 <=1 
C579: x17+x42 <=1 
C580: x17+x44 <=1 
C581: x17+x45 <=1 
C582: x17+x46-y17_46 <=1 
C583: x17+x47 <=1 
C584: x17+x48 <=1 
C585: x17+x49 <=1 
C586: x17+x50-y17_50 <=1 
C587: x17+x51 <=1 
C588: x17+x52-y17_52 <=1 
C589: x17+x53-y17_53 <=1 
C590: x17+x55-y17_55 <=1 
C591: x17+x60-y17_60 <=1 
C592: x17+x62-y17_62 <=1 
C593: x17+x63-y17_63 <=1 
C594: x18+x21-y18_21 <=1 
C595: x18+x24-y18_24 <=1 
C596: x18+x26 <=1 
C597: x18+x29 <=1 
C598: x18+x30 <=1 
C599: x18+x32 <=1 
C600: x18+x33 <=1 
C601: x18+x34 <=1 
C602: x18+x35-y18_35 <=1 
C603: x18+x36 <=1 
C604: x18+x39-y18_39 <=1 
C605: x18+x40-y18_40 <=1 
C606: x18+x41 <=1 
C607: x18+x42 <=1 
C608: x18+x43 <=1 
C609: x18+x44-y18_44 <=1 
C610: x18+x46 <=1 
C611: x18+x48-y18_48 <=1 
C612: x18+x49-y18_49 <=1 
C613: x18+x51-y18_51 <=1 
C614: x18+x52-y18_52 <=1 
C615: x18+x53-y18_53 <=1 
C616: x18+x54 <=1 
C617: x18+x56 <=1 
C618: x18+x60 <=1 
C619: x18+x62 <=1 
C620: x19+x21-y19_21 <=1 
C621: x19+x24-y19_24 <=1 
C622: x19+x25-y19_25 <=1 
C623: x19+x26-y19_26 <=1 
C624: x19+x27-y19_27 <=1 
C625: x19+x29 <=1 
C626: x19+x33 <=1 
C627: x19+x37-y19_37 <=1 
C628: x19+x39-y19_39 <=1 
C629: x19+x40 <=1 
C630: x19+x41 <=1 
C631: x19+x42 <=1 
C632: x19+x44 <=1 
C633: x19+x47 <=1 
C634: x19+x48 <=1 
C635: x19+x49 <=1 
C636: x19+x56 <=1 
C637: x19+x61 <=1 
C638: x19+x62-y19_62 <=1 
C639: x19+x63 <=1 
C640: x20+x21-y20_21 <=1 
C641: x20+x22-y20_22 <=1 
C642: x20+x23 <=1 
C643: x20+x26-y20_26 <=1 
C644: x20+x27-y20_27 <=1 
C645: x20+x28 <=1 
C646: x20+x29 <=1 
C647: x20+x30 <=1 
C648: x20+x31-y20_31 <=1 
C649: x20+x32-y20_32 <=1 
C650: x20+x34-y20_34 <=1 
C651: x20+x35 <=1 
C652: x20+x37 <=1 
C653: x20+x39-y20_39 <=1 
C654: x20+x40-y20_40 <=1 
C655: x20+x41-y20_41 <=1 
C656: x20+x42 <=1 
C657: x20+x44-y20_44 <=1 
C658: x20+x45-y20_45 <=1 
C659: x20+x46 <=1 
C660: x20+x51 <=1 
C661: x20+x56 <=1 
C662: x20+x59-y20_59 <=1 
C663: x20+x60-y20_60 <=1 
C664: x21+x22 <=1 
C665: x21+x24 <=1 
C666: x21+x25-y21_25 <=1 
C667: x21+x26-y21_26 <=1 
C668: x21+x27-y21_27 <=1 
C669: x21+x28-y21_28 <=1 
C670: x21+x29-y21_29 <=1 
C671: x21+x31-y21_31 <=1 
C672: x21+x33-y21_33 <=1 
C673: x21+x34-y21_34 <=1 
C674: x21+x36-y21_36 <=1 
C675: x21+x37-y21_37 <=1 
C676: x21+x44-y21_44 <=1 
C677: x21+x47 <=1 
C678: x21+x48-y21_48 <=1 
C679: x21+x49-y21_49 <=1 
C680: x21+x50-y21_50 <=1 
C681: x21+x52-y21_52 <=1 
C682: x21+x59-y21_59 <=1 
C683: x21+x63 <=1 
C684: x22+x23-y22_23 <=1 
C685: x22+x26-y22_26 <=1 
C686: x22+x27 <=1 
C687: x22+x29-y22_29 <=1 
C688: x22+x30 <=1 
C689: x22+x31-y22_31 <=1 
C690: x22+x32-y22_32 <=1 
C691: x22+x33-y22_33 <=1 
C692: x22+x34-y22_34 <=1 
C693: x22+x35 <=1 
C694: x22+x36-y22_36 <=1 
C695: x22+x37-y22_37 <=1 
C696: x22+x39-y22_39 <=1 
C697: x22+x41 <=1 
C698: x22+x42-y22_42 <=1 
C699: x22+x43-y22_43 <=1 
C700: x22+x44-y22_44 <=1 
C701: x22+x46-y22_46 <=1 
C702: x22+x50-y22_50 <=1 
C703: x22+x51 <=1 
C704: x22+x52 <=1 
C705: x22+x53-y22_53 <=1 
C706: x22+x54 <=1 
C707: x22+x55 <=1 
C708: x22+x57-y22_57 <=1 
C709: x22+x60 <=1 
C710: x22+x61 <=1 
C711: x22+x62-y22_62 <=1 
C712: x22+x63-y22_63 <=1 
C713: x23+x25 <=1 
C714: x23+x26-y23_26 <=1 
C715: x23+x27-y23_27 <=1 
C716: x23+x28 <=1 
C717: x23+x30-y23_30 <=1 
C718: x23+x33 <=1 
C719: x23+x34 <=1 
C720: x23+x37-y23_37 <=1 
C721: x23+x40-y23_40 <=1 
C722: x23+x41 <=1 
C723: x23+x42-y23_42 <=1 
C724: x23+x43 <=1 
C725: x23+x46-y23_46 <=1 
C726: x23+x48-y23_48 <=1 
C727: x23+x49-y23_49 <=1 
C728: x23+x50 <=1 
C729: x23+x51-y23_51 <=1 
C730: x23+x52-y23_52 <=1 
C731: x23+x53 <=1 
C732: x23+x55 <=1 
C733: x23+x56 <=1 
C734: x23+x58-y23_58 <=1 
C735: x23+x63 <=1 
C736: x24+x25-y24_25 <=1 
C737: x24+x27-y24_27 <=1 
C738: x24+x28 <=1 
C739: x24+x31-y24_31 <=1 
C740: x24+x32-y24_32 <=1 
C741: x24+x33-y24_33 <=1 
C742: x24+x37 <=1 
C743: x24+x41-y24_41 <=1 
C744: x24+x42 <=1 
C745: x24+x44 <=1 
C746: x24+x47-y24_47 <=1 
C747: x24+x49 <=1 
C748: x24+x50 <=1 
C749: x24+x51-y24_51 <=1 
C750: x24+x52 <=1 
C751: x24+x54 <=1 
C752: x24+x55 <=1 
C753: x24+x56 <=1 
C754: x24+x58 <=1 
C755: x24+x59-y24_59 <=1 
C756: x24+x60 <=1 
C757: x24+x61-y24_61 <=1 
C758: x24+x63 <=1 
C759: x25+x26-y25_26 <=1 
C760: x25+x28 <=1 
C761: x25+x29-y25_29 <=1 
C762: x25+x30 <=1 
C763: x25+x31-y25_31 <=1 
C764: x25+x32-y25_32 <=1 
C765: x25+x35-y25_35 <=1 
C766: x25+x38-y25_38 <=1 
C767: x25+x39 <=1 
C768: x25+x40-y25_40 <=1 
C769: x25+x42 <=1 
C770: x25+x43 <=1 
C771: x25+x44 <=1 
C772: x25+x45 <=1 
C773: x25+x46 <=1 
C774: x25+x48 <=1 
C775: x25+x50 <=1 
C776: x25+x51 <=1 
C777: x25+x52 <=1 
C778: x25+x56-y25_56 <=1 
C779: x25+x59 <=1 
C780: x25+x60-y25_60 <=1 
C781: x25+x61 <=1 
C782: x25+x62 <=1 
C783: x25+x63-y25_63 <=1 
C784: x26+x28-y26_28 <=1 
C785: x26+x29 <=1 
C786: x26+x30-y26_30 <=1 
C787: x26+x31-y26_31 <=1 
C788: x26+x32-y26_32 <=1 
C789: x26+x33 <=1 
C790: x26+x35-y26_35 <=1 
C791: x26+x38 <=1 
C792: x26+x39 <=1 
C793: x26+x41 <=1 
C794: x26+x42-y26_42 <=1 
C795: x26+x45-y26_45 <=1 
C796: x26+x47 <=1 
C797: x26+x48-y26_48 <=1 
C798: x26+x50-y26_50 <=1 
C799: x26+x51-y26_51 <=1 
C800: x26+x55 <=1 
C801: x26+x57-y26_57 <=1 
C802: x26+x58-y26_58 <=1 
C803: x26+x61-y26_61 <=1 
C804: x26+x62 <=1 
C805: x27+x32-y27_32 <=1 
C806: x27+x33-y27_33 <=1 
C807: x27+x36-y27_36 <=1 
C808: x27+x37 <=1 
C809: x27+x38-y27_38 <=1 
C810: x27+x39-y27_39 <=1 
C811: x27+x40-y27_40 <=1 
C812: x27+x41-y27_41 <=1 
C813: x27+x42 <=1 
C814: x27+x45 <=1 
C815: x27+x46-y27_46 <=1 
C816: x27+x47 <=1 
C817: x27+x50 <=1 
C818: x27+x52 <=1 
C819: x27+x54-y27_54 <=1 
C820: x27+x56-y27_56 <=1 
C821: x27+x58 <=1 
C822: x27+x59 <=1 
C823: x27+x60-y27_60 <=1 
C824: x27+x61 <=1 
C825: x27+x63-y27_63 <=1 
C826: x28+x29 <=1 
C827: x28+x30 <=1 
C828: x28+x31 <=1 
C829: x28+x35-y28_35 <=1 
C830: x28+x36-y28_36 <=1 
C831: x28+x37 <=1 
C832: x28+x38 <=1 
C833: x28+x39-y28_39 <=1 
C834: x28+x42-y28_42 <=1 
C835: x28+x44 <=1 
C836: x28+x46 <=1 
C837: x28+x47-y28_47 <=1 
C838: x28+x48 <=1 
C839: x28+x51-y28_51 <=1 
C840: x28+x52-y28_52 <=1 
C841: x28+x53-y28_53 <=1 
C842: x28+x56-y28_56 <=1 
C843: x28+x57 <=1 
C844: x28+x59-y28_59 <=1 
C845: x28+x61-y28_61 <=1 
C846: x28+x62-y28_62 <=1 
C847: x29+x31-y29_31 <=1 
C848: x29+x32 <=1 
C849: x29+x34-y29_34 <=1 
C850: x29+x35 <=1 
C851: x29+x37-y29_37 <=1 
C852: x29+x38-y29_38 <=1 
C853: x29+x40-y29_40 <=1 
C854: x29+x41 <=1 
C855: x29+x42 <=1 
C856: x29+x43 <=1 
C857: x29+x48 <=1 
C858: x29+x49 <=1 
C859: x29+x50-y29_50 <=1 
C860: x29+x51 <=1 
C861: x29+x52-y29_52 <=1 
C862: x29+x53 <=1 
C863: x29+x55-y29_55 <=1 
C864: x29+x56-y29_56 <=1 
C865: x29+x57 <=1 
C866: x29+x59 <=1 
C867: x29+x60 <=1 
C868: x29+x61 <=1 
C869: x29+x62 <=1 
C870: x29+x63-y29_63 <=1 
C871: x30+x33-y30_33 <=1 
C872: x30+x34 <=1 
C873: x30+x35-y30_35 <=1 
C874: x30+x37 <=1 
C875: x30+x41 <=1 
C876: x30+x42 <=1 
C877: x30+x43-y30_43 <=1 
C878: x30+x44-y30_44 <=1 
C879: x30+x45 <=1 
C880: x30+x46 <=1 
C881: x30+x48 <=1 
C882: x30+x50 <=1 
C883: x30+x51 <=1 
C884: x30+x53 <=1 
C885: x30+x54-y30_54 <=1 
C886: x30+x56 <=1 
C887: x30+x58-y30_58 <=1 
C888: x30+x59-y30_59 <=1 
C889: x30+x62 <=1 
C890: x31+x32 <=1 
C891: x31+x35-y31_35 <=1 
C892: x31+x36 <=1 
C893: x31+x37 <=1 
C894: x31+x41-y31_41 <=1 
C895: x31+x43-y31_43 <=1 
C896: x31+x44-y31_44 <=1 
C897: x31+x45 <=1 
C898: x31+x48-y31_48 <=1 
C899: x31+x51-y31_51 <=1 
C900: x31+x54-y31_54 <=1 
C901: x31+x56 <=1 
C902: x31+x57 <=1 
C903: x31+x59-y31_59 <=1 
C904: x31+x60 <=1 
C905: x31+x61-y31_61 <=1 
C906: x31+x62-y31_62 <=1 
C907: x31+x63 <=1 
C908: x32+x34-y32_34 <=1 
C909: x32+x37 <=1 
C910: x32+x39 <=1 
C911: x32+x40 <=1 
C912: x32+x41-y32_41 <=1 
C913: x32+x42 <=1 
C914: x32+x43 <=1 
C915: x32+x44 <=1 
C916: x32+x45 <=1 
C917: x32+x47-y32_47 <=1 
C918: x32+x49-y32_49 <=1 
C919: x32+x50-y32_50 <=1 
C920: x32+x51 <=1 
C921: x32+x52-y32_52 <=1 
C922: x32+x53 <=1 
C923: x32+x55 <=1 
C924: x32+x56 <=1 
C925: x32+x57 <=1 
C926: x32+x59-y32_59 <=1 
C927: x32+x60 <=1 
C928: x32+x61 <=1 
C929: x32+x62 <=1 
C930: x33+x35-y33_35 <=1 
C931: x33+x36-y33_36 <=1 
C932: x33+x37 <=1 
C933: x33+x40-y33_40 <=1 
C934: x33+x42-y33_42 <=1 
C935: x33+x43 <=1 
C936: x33+x44-y33_44 <=1 
C937: x33+x46-y33_46 <=1 
C938: x33+x47 <=1 
C939: x33+x48-y33_48 <=1 
C940: x33+x50 <=1 
C941: x33+x52 <=1 
C942: x33+x54 <=1 
C943: x33+x55-y33_55 <=1 
C944: x33+x57 <=1 
C945: x33+x59 <=1 
C946: x33+x62-y33_62 <=1 
C947: x33+x63 <=1 
C948: x34+x35-y34_35 <=1 
C949: x34+x37-y34_37 <=1 
C950: x34+x38 <=1 
C951: x34+x39-y34_39 <=1 
C952: x34+x40-y34_40 <=1 
C953: x34+x41 <=1 
C954: x34+x42-y34_42 <=1 
C955: x34+x43 <=1 
C956: x34+x45 <=1 
C957: x34+x46 <=1 
C958: x34+x47-y34_47 <=1 
C959: x34+x48-y34_48 <=1 
C960: x34+x49 <=1 
C961: x34+x51 <=1 
C962: x34+x53-y34_53 <=1 
C963: x34+x55-y34_55 <=1 
C964: x34+x56 <=1 
C965: x34+x57 <=1 
C966: x34+x59 <=1 
C967: x34+x60-y34_60 <=1 
C968: x34+x61-y34_61 <=1 
C969: x34+x62-y34_62 <=1 
C970: x35+x36-y35_36 <=1 
C971: x35+x39 <=1 
C972: x35+x40 <=1 
C973: x35+x41-y35_41 <=1 
C974: x35+x42-y35_42 <=1 
C975: x35+x44 <=1 
C976: x35+x47-y35_47 <=1 
C977: x35+x48-y35_48 <=1 
C978: x35+x50 <=1 
C979: x35+x53 <=1 
C980: x35+x54-y35_54 <=1 
C981: x35+x56 <=1 
C982: x35+x59-y35_59 <=1 
C983: x35+x63-y35_63 <=1 
C984: x36+x37-y36_37 <=1 
C985: x36+x39 <=1 
C986: x36+x41 <=1 
C987: x36+x42 <=1 
C988: x36+x43 <=1 
C989: x36+x44-y36_44 <=1 
C990: x36+x47 <=1 
C991: x36+x55-y36_55 <=1 
C992: x36+x59 <=1 
C993: x36+x60 <=1 
C994: x36+x61-y36_61 <=1 
C995: x36+x63 <=1 
C996: x37+x39-y37_39 <=1 
C997: x37+x41 <=1 
C998: x37+x43 <=1 
C999: x37+x44 <=1 
C1000: x37+x45 <=1 
C1001: x37+x47-y37_47 <=1 
C1002: x37+x49-y37_49 <=1 
C1003: x37+x50-y37_50 <=1 
C1004: x37+x53-y37_53 <=1 
C1005: x37+x54 <=1 
C1006: x37+x56 <=1 
C1007: x37+x57 <=1 
C1008: x37+x58 <=1 
C1009: x37+x59-y37_59 <=1 
C1010: x37+x60 <=1 
C1011: x37+x62-y37_62 <=1 
C1012: x37+x63 <=1 
C1013: x38+x39-y38_39 <=1 
C1014: x38+x40-y38_40 <=1 
C1015: x38+x43-y38_43 <=1 
C1016: x38+x44-y38_44 <=1 
C1017: x38+x46-y38_46 <=1 
C1018: x38+x48 <=1 
C1019: x38+x49-y38_49 <=1 
C1020: x38+x50 <=1 
C1021: x38+x51 <=1 
C1022: x38+x55-y38_55 <=1 
C1023: x38+x58 <=1 
C1024: x38+x60-y38_60 <=1 
C1025: x38+x61-y38_61 <=1 
C1026: x38+x62-y38_62 <=1 
C1027: x38+x63-y38_63 <=1 
C1028: x39+x41 <=1 
C1029: x39+x42 <=1 
C1030: x39+x45 <=1 
C1031: x39+x46-y39_46 <=1 
C1032: x39+x48-y39_48 <=1 
C1033: x39+x49 <=1 
C1034: x39+x50 <=1 
C1035: x39+x54 <=1 
C1036: x39+x58 <=1 
C1037: x39+x59 <=1 
C1038: x39+x60 <=1 
C1039: x39+x61 <=1 
C1040: x39+x62 <=1 
C1041: x39+x63 <=1 
C1042: x40+x42 <=1 
C1043: x40+x44-y40_44 <=1 
C1044: x40+x45 <=1 
C1045: x40+x46 <=1 
C1046: x40+x47 <=1 
C1047: x40+x49 <=1 
C1048: x40+x52 <=1 
C1049: x40+x54 <=1 
C1050: x40+x55 <=1 
C1051: x40+x56 <=1 
C1052: x40+x57-y40_57 <=1 
C1053: x40+x58 <=1 
C1054: x40+x59-y40_59 <=1 
C1055: x40+x61-y40_61 <=1 
C1056: x40+x63 <=1 
C1057: x41+x43 <=1 
C1058: x41+x44 <=1 
C1059: x41+x45-y41_45 <=1 
C1060: x41+x46 <=1 
C1061: x41+x47-y41_47 <=1 
C1062: x41+x48-y41_48 <=1 
C1063: x41+x52-y41_52 <=1 
C1064: x41+x54-y41_54 <=1 
C1065: x41+x55-y41_55 <=1 
C1066: x41+x56-y41_56 <=1 
C1067: x41+x57 <=1 
C1068: x41+x58 <=1 
C1069: x41+x59-y41_59 <=1 
C1070: x41+x60 <=1 
C1071: x41+x61 <=1 
C1072: x41+x62 <=1 
C1073: x42+x44-y42_44 <=1 
C1074: x42+x46-y42_46 <=1 
C1075: x42+x47-y42_47 <=1 
C1076: x42+x48-y42_48 <=1 
C1077: x42+x49-y42_49 <=1 
C1078: x42+x51-y42_51 <=1 
C1079: x42+x52 <=1 
C1080: x42+x53 <=1 
C1081: x42+x54 <=1 
C1082: x42+x55 <=1 
C1083: x42+x56-y42_56 <=1 
C1084: x42+x57-y42_57 <=1 
C1085: x42+x58-y42_58 <=1 
C1086: x42+x63-y42_63 <=1 
C1087: x43+x44-y43_44 <=1 
C1088: x43+x45 <=1 
C1089: x43+x46-y43_46 <=1 
C1090: x43+x48-y43_48 <=1 
C1091: x43+x49 <=1 
C1092: x43+x53-y43_53 <=1 
C1093: x43+x55-y43_55 <=1 
C1094: x43+x57 <=1 
C1095: x43+x58-y43_58 <=1 
C1096: x43+x59-y43_59 <=1 
C1097: x43+x61 <=1 
C1098: x44+x45 <=1 
C1099: x44+x49 <=1 
C1100: x44+x50 <=1 
C1101: x44+x52-y44_52 <=1 
C1102: x44+x54 <=1 
C1103: x44+x55-y44_55 <=1 
C1104: x44+x56-y44_56 <=1 
C1105: x44+x57 <=1 
C1106: x44+x59 <=1 
C1107: x44+x61 <=1 
C1108: x44+x62-y44_62 <=1 
C1109: x45+x46-y45_46 <=1 
C1110: x45+x48 <=1 
C1111: x45+x49-y45_49 <=1 
C1112: x45+x51 <=1 
C1113: x45+x53 <=1 
C1114: x45+x54-y45_54 <=1 
C1115: x45+x56-y45_56 <=1 
C1116: x45+x60 <=1 
C1117: x45+x61 <=1 
C1118: x45+x63 <=1 
C1119: x46+x47 <=1 
C1120: x46+x48-y46_48 <=1 
C1121: x46+x50-y46_50 <=1 
C1122: x46+x51-y46_51 <=1 
C1123: x46+x52 <=1 
C1124: x46+x53-y46_53 <=1 
C1125: x46+x59-y46_59 <=1 
C1126: x46+x60-y46_60 <=1 
C1127: x46+x61-y46_61 <=1 
C1128: x46+x62 <=1 
C1129: x46+x63 <=1 
C1130: x47+x49-y47_49 <=1 
C1131: x47+x52-y47_52 <=1 
C1132: x47+x53-y47_53 <=1 
C1133: x47+x54 <=1 
C1134: x47+x55 <=1 
C1135: x47+x58 <=1 
C1136: x47+x59 <=1 
C1137: x47+x60-y47_60 <=1 
C1138: x47+x63-y47_63 <=1 
C1139: x48+x49-y48_49 <=1 
C1140: x48+x51-y48_51 <=1 
C1141: x48+x52-y48_52 <=1 
C1142: x48+x53 <=1 
C1143: x48+x54-y48_54 <=1 
C1144: x48+x56-y48_56 <=1 
C1145: x48+x58 <=1 
C1146: x48+x60-y48_60 <=1 
C1147: x48+x62 <=1 
C1148: x48+x63 <=1 
C1149: x49+x52-y49_52 <=1 
C1150: x49+x54 <=1 
C1151: x49+x55-y49_55 <=1 
C1152: x49+x56-y49_56 <=1 
C1153: x49+x58 <=1 
C1154: x49+x60 <=1 
C1155: x50+x52-y50_52 <=1 
C1156: x50+x53-y50_53 <=1 
C1157: x50+x54 <=1 
C1158: x50+x55 <=1 
C1159: x50+x56 <=1 
C1160: x50+x57-y50_57 <=1 
C1161: x50+x58-y50_58 <=1 
C1162: x50+x59 <=1 
C1163: x50+x60-y50_60 <=1 
C1164: x50+x61 <=1 
C1165: x50+x62-y50_62 <=1 
C1166: x50+x63 <=1 
C1167: x51+x53 <=1 
C1168: x51+x54-y51_54 <=1 
C1169: x51+x55 <=1 
C1170: x51+x56 <=1 
C1171: x51+x60-y51_60 <=1 
C1172: x52+x54-y52_54 <=1 
C1173: x52+x56-y52_56 <=1 
C1174: x52+x57 <=1 
C1175: x52+x59 <=1 
C1176: x52+x60-y52_60 <=1 
C1177: x52+x62-y52_62 <=1 
C1178: x52+x63-y52_63 <=1 
C1179: x53+x55 <=1 
C1180: x53+x56 <=1 
C1181: x53+x58-y53_58 <=1 
C1182: x53+x60 <=1 
C1183: x53+x61 <=1 
C1184: x53+x62-y53_62 <=1 
C1185: x53+x63-y53_63 <=1 
C1186: x54+x56-y54_56 <=1 
C1187: x54+x57 <=1 
C1188: x54+x59-y54_59 <=1 
C1189: x54+x61 <=1 
C1190: x54+x63-y54_63 <=1 
C1191: x55+x57 <=1 
C1192: x55+x58 <=1 
C1193: x55+x59-y55_59 <=1 
C1194: x55+x60 <=1 
C1195: x55+x61 <=1 
C1196: x55+x63 <=1 
C1197: x56+x58-y56_58 <=1 
C1198: x56+x59-y56_59 <=1 
C1199: x56+x60-y56_60 <=1 
C1200: x56+x61 <=1 
C1201: x56+x63-y56_63 <=1 
C1202: x57+x58-y57_58 <=1 
C1203: x57+x59-y57_59 <=1 
C1204: x57+x60 <=1 
C1205: x57+x63-y57_63 <=1 
C1206: x58+x59 <=1 
C1207: x58+x61-y58_61 <=1 
C1208: x58+x62 <=1 
C1209: x58+x63 <=1 
C1210: x59+x61 <=1 
C1211: x59+x62-y59_62 <=1 
C1212: x59+x63 <=1 
C1213: x60+x61 <=1 
C1214: x60+x62 <=1 
C1215: x60+x63-y60_63 <=1 
C1216: x61+x62-y61_62 <=1 
C1217: x61+x63-y61_63 <=1 
C1218: x62+x63 <=1 

binary
x0
x1
x2
x3
x4
x5
x6
x7
x8
x9
x10
x11
x12
x13
x14
x15
x16
x17
x18
x19
x20
x21
x22
x23
x24
x25
x26
x27
x28
x29
x30
x31
x32
x33
x34
x35
x36
x37
x38
x39
x40
x41
x42
x43
x44
x45
x46
x47
x48
x49
x50
x51
x52
x53
x54
x55
x56
x57
x58
x59
x60
x61
x62
x63
