problem_generation/data/GISP/train/er_n=64_m=1218_p=0.60_SET2_setparam=100.00_alpha=0.50_928.sol
objective value:                                 1181
x0                                                  1 	(obj:100)
x14                                                 1 	(obj:100)
x16                                                 1 	(obj:100)
x19                                                 1 	(obj:100)
x20                                                 1 	(obj:100)
x25                                                 1 	(obj:100)
x26                                                 1 	(obj:100)
x34                                                 1 	(obj:100)
x36                                                 1 	(obj:100)
x53                                                 1 	(obj:100)
x54                                                 1 	(obj:100)
x58                                                 1 	(obj:100)
y14_19                                              1 	(obj:-1)
y20_34                                              1 	(obj:-1)
y34_53                                              1 	(obj:-1)
y16_26                                              1 	(obj:-1)
y19_26                                              1 	(obj:-1)
y14_54                                              1 	(obj:-1)
y19_25                                              1 	(obj:-1)
y16_58                                              1 	(obj:-1)
y25_26                                              1 	(obj:-1)
y14_16                                              1 	(obj:-1)
y16_53                                              1 	(obj:-1)
y16_34                                              1 	(obj:-1)
y0_58                                               1 	(obj:-1)
y0_53                                               1 	(obj:-1)
y20_26                                              1 	(obj:-1)
y16_19                                              1 	(obj:-1)
y53_58                                              1 	(obj:-1)
y26_58                                              1 	(obj:-1)
y0_19                                               1 	(obj:-1)
